p cnf 21 11
e 1 0
a 2 3 0
e 4 0
a 5 6 0
e 7 0
a 8 0
e 9 0
a 10 11 12 0
e 13 0
a 14 0
e 15 16 0
a 17 0
e 18 19 0
a 20 0
e 21 0
-16 11 19 -1 -9 0
-10 -17 13 16 0
13 21 -3 -7 15 0
20 -12 -6 0
13 -2 -3 9 -4 0
-15 5 -14 -4 11 0
20 18 -3 0
7 18 -1 4 -17 0
-11 -15 -14 -17 10 0
-19 16 12 0
18 5 8 -19 0
